assets/logs/2_16x16_clingo/2_16x16_clingo.solution.log

-----------------------------------------------------------------
| 10|120| 14|128|190|116| 18|232|186|  1| 22|176|  1| 84| 94| 88|
-----------------------------------------------------------------
|  0|126|  8|118| 16|234|188|102| 20|178|228| 98| 24| 90|172| 82|
-----------------------------------------------------------------
|  1| 12|122|192|130|104|114|184|230|100| 38|  1|174| 96| 86| 92|
-----------------------------------------------------------------
|124|  6|132| 75|  1|  0|181|175| 40|226|180| 26| 36|170| 80| 19|
-----------------------------------------------------------------
|134| 81|194|  4|179| 77|106|112|182|173|162|168| 78| 21| 34|  1|
-----------------------------------------------------------------
|  1|  0| 73| 79|108|183|177|111|160| 42|224|  0| 28|166| 17| 74|
-----------------------------------------------------------------
| 83|136|187|196|  2|109|110|152|  7|156|171|164|  0| 76| 23| 32|
-----------------------------------------------------------------
|140| 71| 85|107|185|  3|113|158|169|222| 44| 11|216| 30| 72| 15|
-----------------------------------------------------------------
| 87|189|138|144|198|225|150|  5|154|  9|214|220|  1| 13|135| 25|
-----------------------------------------------------------------
| 69|142|105|223|197|146|200|115|208|167|161| 46|133|218|  1| 70|
-----------------------------------------------------------------
|191| 89|199| 65|103|221|227|148|202|117|131|212|163| 48| 27|137|
-----------------------------------------------------------------
|  0| 67|101|195|229| 39|205|206|217|210|165|159|129|147| 68| 50|
-----------------------------------------------------------------
| 91|193|231|201| 63| 57|219| 37|207|204|119|149|  0| 29|139|145|
-----------------------------------------------------------------
| 49| 99| 93| 59|  1|203| 41|215|121|211| 60|127|157|143| 52| 66|
-----------------------------------------------------------------
|  0|233| 51| 45| 95| 61| 55|209| 35|125|151| 56| 31| 64|155|141|
-----------------------------------------------------------------
|  0| 47| 97|235| 53| 43|  0|123|213| 58| 33| 62|153| 54|  0|  0|
-----------------------------------------------------------------

| n = 16 | k = 10 | coverage = 244, 95.3125%
 Time 299.999
 Name 2_16x16_clingo

