assets/logs/2_16x16_clingo/2_16x16_clingo.log
clingo version 5.4.0
Reading from ...ts/logs/2_16x16_clingo/knights_tour.lp ...
Solving...
Answer: 1
occ(1,3,12) occ(1,10,15) occ(1,1,10) occ(1,6,1) occ(1,3,1) occ(1,9,13) occ(1,5,16) occ(1,14,5) occ(1,4,5) occ(1,1,13) occ(2,7,5) occ(3,8,6) coverage(6)
Optimization: -6
Answer: 2
occ(1,3,12) occ(1,10,15) occ(1,1,10) occ(1,6,1) occ(1,3,1) occ(1,9,13) occ(1,5,16) occ(1,14,5) occ(1,4,5) occ(1,1,13) occ(2,7,5) occ(3,8,6) coverage(134) occ(17,1,12) occ(21,1,8) occ(25,1,6) occ(31,1,3) occ(39,1,5) occ(45,1,4) occ(51,1,7) occ(11,2,8) occ(19,2,10) occ(22,2,2) occ(27,2,4) occ(33,2,1) occ(37,2,3) occ(41,2,7) occ(47,2,6) occ(53,2,5) occ(15,3,11) occ(16,3,6) occ(20,3,4) occ(23,3,7) occ(29,3,2) occ(43,3,5) occ(49,3,8) occ(55,3,3) occ(9,4,7) occ(13,4,9) occ(14,4,4) occ(24,4,3) occ(35,4,2) occ(18,5,5) occ(26,5,1) occ(57,5,4) occ(66,5,9) occ(7,6,6) occ(12,6,5) occ(28,6,3) occ(63,6,2) occ(64,6,7) occ(5,7,4) occ(30,7,1) occ(59,7,3) occ(62,7,9) occ(68,7,8) occ(95,7,7) occ(6,8,2) occ(10,8,4) occ(60,8,7) occ(61,8,1) occ(65,8,3) occ(132,8,5) occ(4,9,4) occ(32,9,2) occ(67,9,5) occ(70,9,7) occ(75,9,3) occ(93,9,6) occ(97,9,8) occ(122,9,11) occ(8,10,3) occ(36,10,1) occ(58,10,6) occ(69,10,7) occ(72,10,5) occ(98,10,14) occ(114,10,10) occ(124,10,9) occ(130,10,4) occ(34,11,3) occ(73,11,4) occ(74,11,7) occ(77,11,2) occ(91,11,5) occ(99,11,9) occ(100,11,16) occ(112,11,8) occ(120,11,12) occ(128,11,6) occ(38,12,2) occ(56,12,5) occ(71,12,6) occ(79,12,4) occ(96,12,15) occ(105,12,7) occ(110,12,10) occ(116,12,11) occ(126,12,8) occ(42,13,3) occ(46,13,1) occ(54,13,7) occ(76,13,8) occ(81,13,2) occ(85,13,6) occ(89,13,4) occ(101,13,10) occ(102,13,15) occ(107,13,5) occ(108,13,12) occ(118,13,13) occ(123,13,11) occ(40,14,1) occ(48,14,3) occ(78,14,6) occ(83,14,4) occ(88,14,15) occ(94,14,16) occ(103,14,8) occ(106,14,14) occ(113,14,7) occ(117,14,9) occ(121,14,13) occ(127,14,12) occ(133,14,11) occ(44,15,2) occ(52,15,6) occ(80,15,8) occ(84,15,12) occ(87,15,5) occ(92,15,14) occ(104,15,16) occ(109,15,4) occ(119,15,11) occ(125,15,10) occ(131,15,9) occ(135,15,13) occ(50,16,4) occ(82,16,10) occ(86,16,14) occ(90,16,16) occ(111,16,6) occ(115,16,8) occ(129,16,11) occ(137,16,15)
Optimization: -134
Answer: 3
occ(1,3,12) occ(1,10,15) occ(1,1,10) occ(1,6,1) occ(1,3,1) occ(1,9,13) occ(1,5,16) occ(1,14,5) occ(1,4,5) occ(1,1,13) occ(2,7,5) occ(3,8,6) coverage(149) occ(17,1,4) occ(21,1,8) occ(22,1,15) occ(31,1,7) occ(11,2,4) occ(15,2,2) occ(19,2,6) occ(24,2,13) occ(29,2,9) occ(33,2,5) occ(198,2,10) occ(204,2,7) occ(232,2,3) occ(9,3,6) occ(10,3,11) occ(20,3,16) occ(23,3,7) occ(35,3,3) occ(101,3,10) occ(148,3,4) occ(202,3,9) occ(206,3,5) occ(6,4,8) occ(12,4,13) occ(13,4,3) occ(18,4,14) occ(26,4,12) occ(27,4,10) occ(39,4,4) occ(196,4,9) occ(200,4,11) occ(230,4,2) occ(4,5,6) occ(7,5,7) occ(8,5,10) occ(14,5,15) occ(25,5,8) occ(28,5,14) occ(37,5,2) occ(99,5,11) occ(103,5,9) occ(146,5,3) occ(150,5,5) occ(208,5,4) occ(16,6,13) occ(30,6,16) occ(34,6,14) occ(41,6,5) occ(90,6,12) occ(105,6,11) occ(128,6,9) occ(132,6,7) occ(190,6,4) occ(194,6,8) occ(228,6,3) occ(5,7,8) occ(43,7,7) occ(92,7,14) occ(97,7,10) occ(125,7,12) occ(126,7,11) occ(134,7,9) occ(144,7,2) occ(152,7,4) occ(192,7,6) occ(210,7,3) occ(32,8,15) occ(36,8,13) occ(72,8,9) occ(88,8,11) occ(95,8,12) occ(107,8,10) occ(123,8,14) occ(130,8,8) occ(136,8,7) occ(140,8,3) occ(188,8,5) occ(222,8,2) occ(226,8,4) occ(45,9,6) occ(74,9,7) occ(81,9,12) occ(93,9,14) occ(94,9,15) occ(124,9,10) occ(127,9,11) occ(138,9,5) occ(142,9,1) occ(154,9,3) occ(212,9,2) occ(220,9,4) occ(38,10,12) occ(49,10,7) occ(65,10,5) occ(70,10,8) occ(86,10,10) occ(109,10,11) occ(121,10,13) occ(147,10,16) occ(156,10,1) occ(182,10,2) occ(186,10,4) occ(224,10,3) occ(47,11,5) occ(53,11,4) occ(67,11,7) occ(76,11,6) occ(79,11,13) occ(83,11,11) occ(84,11,8) occ(91,11,15) occ(96,11,16) occ(104,11,12) occ(113,11,14) occ(122,11,9) occ(129,11,10) occ(214,11,1) occ(218,11,3) occ(40,12,11) occ(51,12,6) occ(63,12,4) occ(68,12,7) occ(69,12,9) occ(89,12,13) occ(106,12,10) occ(110,12,8) occ(111,12,12) occ(115,12,16) occ(119,12,14) occ(145,12,15) occ(158,12,2) occ(180,12,1) occ(184,12,3) occ(44,13,12) occ(55,13,3) occ(71,13,11) occ(77,13,14) occ(78,13,5) occ(82,13,7) occ(85,13,10) occ(98,13,15) occ(102,13,13) occ(112,13,6) occ(120,13,8) occ(131,13,9) occ(172,13,4) occ(216,13,2) occ(42,14,10) occ(50,14,14) occ(61,14,3) occ(62,14,6) occ(66,14,8) occ(73,14,13) occ(87,14,12) occ(108,14,9) occ(114,14,4) occ(117,14,15) occ(137,14,11) occ(143,14,16) occ(160,14,1) occ(168,14,7) occ(178,14,2) occ(46,15,11) occ(52,15,16) occ(56,15,12) occ(57,15,2) occ(60,15,8) occ(75,15,15) occ(80,15,6) occ(100,15,14) occ(118,15,7) occ(133,15,10) occ(139,15,13) occ(164,15,4) occ(170,15,5) occ(174,15,3) occ(48,16,13) occ(54,16,14) occ(58,16,10) occ(59,16,4) occ(64,16,7) occ(116,16,5) occ(135,16,12) occ(141,16,15) occ(162,16,2) occ(166,16,6) occ(176,16,1)
Optimization: -149
Answer: 4
occ(1,3,12) occ(1,10,15) occ(1,1,10) occ(1,6,1) occ(1,3,1) occ(1,9,13) occ(1,5,16) occ(1,14,5) occ(1,4,5) occ(1,1,13) occ(2,7,5) occ(3,8,6) coverage(186) occ(17,1,6) occ(38,1,5) occ(42,1,3) occ(47,1,11) occ(60,1,4) occ(64,1,8) occ(68,1,12) occ(134,1,9) occ(177,1,16) occ(181,1,14) occ(11,2,2) occ(15,2,4) occ(21,2,5) occ(30,2,12) occ(36,2,7) occ(45,2,9) occ(49,2,13) occ(56,2,3) occ(62,2,6) occ(66,2,10) occ(103,2,8) occ(175,2,14) occ(183,2,16) occ(19,3,7) occ(23,3,3) occ(34,3,9) occ(40,3,4) occ(44,3,2) occ(52,3,6) occ(58,3,5) occ(70,3,13) occ(132,3,10) occ(136,3,8) occ(173,3,16) occ(179,3,15) occ(185,3,14) occ(9,4,1) occ(13,4,3) occ(22,4,8) occ(28,4,13) occ(32,4,11) occ(43,4,10) occ(51,4,14) occ(54,4,4) occ(101,4,7) occ(105,4,9) occ(138,4,6) occ(20,5,6) occ(24,5,10) occ(25,5,2) occ(35,5,5) occ(46,5,3) occ(50,5,7) occ(72,5,12) occ(99,5,9) occ(130,5,11) occ(140,5,4) occ(145,5,8) occ(171,5,15) occ(7,6,2) occ(26,6,12) occ(27,6,4) occ(33,6,3) occ(37,6,7) occ(41,6,9) occ(48,6,5) occ(53,6,15) occ(85,6,11) occ(86,6,6) occ(107,6,8) occ(128,6,13) occ(139,6,14) occ(143,6,10) occ(5,7,4) occ(18,7,7) occ(29,7,6) occ(55,7,13) occ(74,7,11) occ(88,7,8) occ(97,7,10) occ(137,7,16) occ(141,7,12) occ(142,7,3) occ(147,7,9) occ(169,7,14) occ(31,8,4) occ(39,8,8) occ(57,8,15) occ(83,8,12) occ(84,8,7) occ(87,8,10) occ(109,8,9) occ(126,8,14) occ(149,8,11) occ(167,8,16) occ(4,9,4) occ(16,9,6) occ(71,9,5) occ(76,9,12) occ(81,9,10) occ(89,9,8) occ(90,9,9) occ(95,9,11) occ(135,9,15) occ(144,9,2) occ(165,9,14) occ(6,10,2) occ(14,10,4) occ(59,10,14) occ(67,10,6) occ(77,10,7) occ(82,10,8) occ(93,10,9) occ(108,10,3) occ(111,10,10) occ(124,10,13) occ(151,10,12) occ(163,10,16) occ(61,11,12) occ(65,11,8) occ(69,11,4) occ(73,11,6) occ(78,11,11) occ(79,11,9) occ(91,11,7) occ(92,11,10) occ(106,11,5) occ(115,11,13) occ(133,11,16) occ(146,11,3) occ(155,11,15) occ(8,12,1) occ(12,12,3) occ(63,12,10) occ(75,12,8) occ(80,12,9) occ(104,12,7) occ(110,12,2) occ(113,12,11) occ(114,12,6) occ(122,12,12) occ(131,12,14) occ(153,12,13) occ(161,12,15) occ(178,12,4) occ(94,13,9) occ(102,13,5) occ(112,13,4) occ(116,13,8) occ(117,13,12) occ(120,13,10) occ(148,13,2) occ(157,13,16) occ(180,13,6) occ(10,14,2) occ(96,14,7) occ(123,14,12) occ(129,14,15) occ(150,14,4) occ(159,14,14) occ(160,14,13) occ(166,14,10) occ(170,14,8) occ(176,14,3) occ(100,15,4) occ(118,15,9) occ(119,15,11) occ(125,15,14) occ(152,15,6) occ(156,15,10) occ(164,15,12) occ(174,15,5) occ(182,15,7) occ(98,16,6) occ(121,16,13) occ(127,16,16) occ(154,16,8) occ(158,16,12) occ(162,16,14) occ(168,16,9) occ(172,16,7) occ(184,16,5)
Optimization: -186
Answer: 5
occ(1,3,12) occ(1,10,15) occ(1,1,10) occ(1,6,1) occ(1,3,1) occ(1,9,13) occ(1,5,16) occ(1,14,5) occ(1,4,5) occ(1,1,13) occ(2,7,5) occ(3,8,6) coverage(218) occ(17,1,6) occ(38,1,5) occ(42,1,3) occ(47,1,11) occ(60,1,4) occ(64,1,8) occ(68,1,12) occ(134,1,9) occ(177,1,16) occ(181,1,14) occ(11,2,2) occ(15,2,4) occ(21,2,5) occ(30,2,12) occ(36,2,7) occ(45,2,9) occ(49,2,13) occ(56,2,3) occ(62,2,6) occ(66,2,10) occ(103,2,8) occ(175,2,14) occ(183,2,16) occ(19,3,7) occ(23,3,3) occ(34,3,9) occ(40,3,4) occ(44,3,2) occ(52,3,6) occ(58,3,5) occ(70,3,13) occ(132,3,10) occ(136,3,8) occ(173,3,16) occ(179,3,15) occ(185,3,14) occ(9,4,1) occ(13,4,3) occ(22,4,8) occ(28,4,13) occ(32,4,11) occ(43,4,10) occ(51,4,14) occ(54,4,4) occ(101,4,7) occ(105,4,9) occ(138,4,6) occ(189,4,15) occ(20,5,6) occ(24,5,10) occ(25,5,2) occ(35,5,5) occ(46,5,3) occ(50,5,7) occ(72,5,12) occ(99,5,9) occ(130,5,11) occ(140,5,4) occ(145,5,8) occ(171,5,15) occ(187,5,13) occ(193,5,14) occ(7,6,2) occ(26,6,12) occ(27,6,4) occ(33,6,3) occ(37,6,7) occ(41,6,9) occ(48,6,5) occ(53,6,15) occ(85,6,11) occ(86,6,6) occ(107,6,8) occ(128,6,13) occ(139,6,14) occ(143,6,10) occ(191,6,16) occ(5,7,4) occ(18,7,7) occ(29,7,6) occ(55,7,13) occ(74,7,11) occ(88,7,8) occ(97,7,10) occ(137,7,16) occ(141,7,12) occ(142,7,3) occ(147,7,9) occ(169,7,14) occ(195,7,15) occ(208,7,2) occ(31,8,4) occ(39,8,8) occ(57,8,15) occ(83,8,12) occ(84,8,7) occ(87,8,10) occ(109,8,9) occ(126,8,14) occ(149,8,11) occ(167,8,16) occ(204,8,5) occ(4,9,4) occ(16,9,6) occ(71,9,5) occ(76,9,12) occ(81,9,10) occ(89,9,8) occ(90,9,9) occ(95,9,11) occ(135,9,15) occ(144,9,2) occ(165,9,14) occ(197,9,16) occ(202,9,7) occ(206,9,3) occ(210,9,1) occ(6,10,2) occ(14,10,4) occ(59,10,14) occ(67,10,6) occ(77,10,7) occ(82,10,8) occ(93,10,9) occ(108,10,3) occ(111,10,10) occ(124,10,13) occ(151,10,12) occ(163,10,16) occ(200,10,5) occ(61,11,12) occ(65,11,8) occ(69,11,4) occ(73,11,6) occ(78,11,11) occ(79,11,9) occ(91,11,7) occ(92,11,10) occ(106,11,5) occ(115,11,13) occ(133,11,16) occ(146,11,1) occ(198,11,3) occ(199,11,15) occ(212,11,2) occ(217,11,14) occ(8,12,1) occ(12,12,3) occ(63,12,10) occ(75,12,8) occ(80,12,9) occ(104,12,7) occ(110,12,2) occ(113,12,11) occ(114,12,6) occ(122,12,12) occ(131,12,14) occ(153,12,13) occ(161,12,15) occ(178,12,4) occ(196,12,5) occ(94,13,9) occ(102,13,5) occ(112,13,4) occ(116,13,8) occ(117,13,12) occ(120,13,10) occ(148,13,2) occ(155,13,15) occ(180,13,6) occ(194,13,7) occ(201,13,16) occ(205,13,14) occ(214,13,1) occ(215,13,13) occ(10,14,2) occ(96,14,7) occ(123,14,12) occ(129,14,15) occ(150,14,4) occ(159,14,14) occ(160,14,13) occ(166,14,10) occ(170,14,8) occ(176,14,3) occ(186,14,6) occ(192,14,9) occ(207,14,16) occ(213,14,11) occ(100,15,4) occ(118,15,9) occ(119,15,11) occ(125,15,14) occ(152,15,6) occ(156,15,10) occ(157,15,16) occ(164,15,12) occ(174,15,5) occ(182,15,7) occ(188,15,8) occ(203,15,15) occ(211,15,13) occ(216,15,2) occ(98,16,6) occ(121,16,13) occ(127,16,16) occ(154,16,8) occ(158,16,12) occ(162,16,14) occ(168,16,9) occ(172,16,7) occ(184,16,5) occ(190,16,10) occ(209,16,15)
Optimization: -218
Answer: 6
occ(1,3,12) occ(1,10,15) occ(1,1,10) occ(1,6,1) occ(1,3,1) occ(1,9,13) occ(1,5,16) occ(1,14,5) occ(1,4,5) occ(1,1,13) occ(2,7,5) occ(3,8,6) coverage(226) occ(11,1,11) occ(106,1,7) occ(126,1,9) occ(131,1,3) occ(137,1,6) occ(141,1,8) occ(145,1,4) occ(151,1,5) occ(180,1,16) occ(192,1,14) occ(200,1,12) occ(9,2,9) occ(13,2,13) occ(104,2,5) occ(116,2,3) occ(129,2,1) occ(135,2,4) occ(143,2,6) occ(147,2,2) occ(153,2,7) occ(157,2,11) occ(178,2,14) occ(190,2,16) occ(194,2,12) occ(198,2,10) occ(204,2,15) occ(102,3,3) occ(108,3,6) occ(118,3,5) occ(124,3,8) occ(128,3,10) occ(133,3,2) occ(138,3,11) occ(139,3,7) occ(149,3,4) occ(155,3,9) occ(176,3,16) occ(182,3,15) occ(202,3,13) occ(7,4,8) occ(15,4,12) occ(51,4,6) occ(114,4,4) occ(120,4,7) occ(127,4,2) occ(159,4,10) occ(173,4,9) occ(181,4,3) occ(184,4,13) occ(188,4,15) occ(196,4,11) occ(206,4,16) occ(17,5,14) occ(49,5,8) occ(100,5,2) occ(110,5,5) occ(122,5,9) occ(125,5,4) occ(130,5,11) occ(136,5,10) occ(140,5,12) occ(170,5,13) occ(171,5,7) occ(174,5,15) occ(177,5,6) occ(183,5,1) occ(5,6,7) occ(14,6,10) occ(18,6,12) occ(19,6,16) occ(24,6,13) occ(53,6,5) occ(59,6,2) occ(112,6,3) occ(123,6,6) occ(132,6,9) occ(161,6,11) occ(175,6,8) occ(179,6,4) occ(186,6,14) occ(208,6,15) occ(20,7,10) occ(28,7,16) occ(47,7,7) occ(55,7,3) occ(61,7,4) occ(98,7,1) occ(134,7,11) occ(142,7,13) occ(148,7,8) occ(163,7,9) occ(168,7,12) occ(169,7,6) occ(172,7,14) occ(185,7,2) occ(214,7,15) occ(12,8,9) occ(16,8,11) occ(21,8,15) occ(22,8,12) occ(26,8,14) occ(32,8,13) occ(57,8,1) occ(121,8,7) occ(146,8,10) occ(167,8,8) occ(203,8,4) occ(209,8,5) occ(210,8,16) occ(4,9,4) occ(30,9,15) occ(45,9,8) occ(63,9,5) occ(69,9,6) occ(96,9,2) occ(144,9,12) occ(150,9,9) occ(165,9,10) occ(166,9,11) occ(187,9,1) occ(207,9,7) occ(211,9,3) occ(212,9,14) occ(216,9,16) occ(10,10,8) occ(23,10,14) occ(34,10,12) occ(37,10,13) occ(67,10,4) occ(93,10,11) occ(119,10,6) occ(164,10,9) occ(201,10,3) occ(205,10,5) occ(215,10,2) occ(6,11,5) occ(25,11,12) occ(29,11,16) occ(35,11,11) occ(36,11,14) occ(43,11,9) occ(65,11,6) occ(71,11,7) occ(94,11,1) occ(95,11,13) occ(117,11,8) occ(152,11,10) occ(189,11,2) occ(195,11,3) occ(213,11,4) occ(218,11,15) occ(8,12,7) occ(27,12,14) occ(33,12,13) occ(38,12,16) occ(39,12,12) occ(68,12,11) occ(86,12,2) occ(91,12,10) occ(92,12,3) occ(97,12,15) occ(115,12,6) occ(156,12,9) occ(162,12,8) occ(193,12,5) occ(199,12,4) occ(217,12,1) occ(31,13,15) occ(41,13,10) occ(56,13,12) occ(66,13,13) occ(70,13,9) occ(73,13,6) occ(89,13,8) occ(90,13,5) occ(113,13,4) occ(154,13,11) occ(158,13,7) occ(191,13,3) occ(197,13,2) occ(220,13,16) occ(224,13,14) occ(40,14,15) occ(44,14,11) occ(48,14,13) occ(54,14,14) occ(58,14,10) occ(75,14,4) occ(76,14,7) occ(83,14,8) occ(84,14,1) occ(88,14,3) occ(99,14,16) occ(103,14,12) occ(160,14,9) occ(219,14,2) occ(42,15,13) occ(52,15,16) occ(60,15,8) occ(64,15,12) occ(72,15,10) occ(77,15,2) occ(80,15,4) occ(81,15,6) occ(87,15,7) occ(101,15,14) occ(107,15,9) occ(111,15,5) occ(222,15,15) occ(223,15,3) occ(46,16,12) occ(50,16,14) occ(62,16,10) occ(74,16,8) occ(78,16,6) occ(79,16,4) occ(82,16,2) occ(85,16,9) occ(105,16,11) occ(109,16,7) occ(221,16,1) occ(225,16,5)
Optimization: -226
Answer: 7
occ(1,3,12) occ(1,10,15) occ(1,1,10) occ(1,6,1) occ(1,3,1) occ(1,9,13) occ(1,5,16) occ(1,14,5) occ(1,4,5) occ(1,1,13) occ(2,7,5) occ(3,8,6) coverage(229) occ(22,1,3) occ(28,1,8) occ(148,1,4) occ(154,1,5) occ(191,1,15) occ(201,1,12) occ(209,1,14) occ(215,1,11) occ(221,1,6) occ(225,1,2) occ(18,2,2) occ(24,2,5) occ(30,2,10) occ(146,2,6) occ(152,2,3) occ(156,2,7) occ(160,2,11) occ(197,2,15) occ(203,2,14) occ(207,2,16) occ(212,2,9) occ(213,2,13) occ(218,2,12) occ(219,2,8) occ(223,2,4) occ(20,3,4) occ(26,3,7) occ(32,3,8) occ(136,3,2) occ(150,3,5) occ(158,3,9) occ(189,3,14) occ(193,3,16) occ(199,3,13) occ(208,3,6) occ(211,3,15) occ(214,3,11) occ(217,3,10) occ(227,3,3) occ(6,4,6) occ(12,4,3) occ(16,4,1) occ(29,4,9) occ(34,4,10) occ(35,4,4) occ(144,4,7) occ(162,4,12) occ(187,4,16) occ(195,4,14) occ(205,4,15) occ(210,4,8) occ(216,4,13) occ(220,4,11) occ(4,5,4) occ(10,5,5) occ(27,5,11) occ(33,5,6) occ(37,5,2) occ(61,5,10) occ(109,5,8) occ(134,5,1) occ(138,5,3) occ(185,5,14) occ(206,5,7) occ(222,5,9) occ(8,6,7) occ(14,6,2) occ(23,6,14) occ(31,6,8) occ(36,6,9) occ(39,6,4) occ(105,6,5) occ(111,6,10) occ(115,6,12) occ(142,6,6) occ(164,6,13) occ(177,6,15) occ(183,6,16) occ(200,6,3) occ(224,6,11) occ(5,7,8) occ(21,7,16) occ(25,7,12) occ(59,7,11) occ(63,7,9) occ(88,7,10) occ(103,7,3) occ(107,7,7) occ(132,7,2) occ(140,7,4) occ(166,7,15) occ(179,7,13) occ(204,7,6) occ(228,7,14) occ(7,8,10) occ(38,8,8) occ(41,8,5) occ(101,8,1) occ(113,8,11) occ(116,8,9) occ(117,8,13) occ(149,8,7) occ(175,8,14) occ(181,8,15) occ(198,8,2) occ(202,8,4) occ(226,8,12) occ(9,9,12) occ(19,9,15) occ(40,9,6) occ(43,9,3) occ(44,9,2) occ(57,9,10) occ(65,9,8) occ(86,9,11) occ(90,9,9) occ(118,9,7) occ(130,9,1) occ(147,9,5) occ(168,9,14) occ(173,9,16) occ(196,9,4) occ(13,10,11) occ(17,10,13) occ(42,10,4) occ(45,10,1) occ(48,10,3) occ(99,10,2) occ(114,10,10) occ(119,10,12) occ(120,10,5) occ(125,10,9) occ(151,10,8) occ(163,10,14) occ(170,10,16) occ(194,10,6) occ(11,11,13) occ(46,11,1) occ(50,11,5) occ(55,11,9) occ(67,11,7) occ(84,11,12) occ(92,11,10) occ(122,11,3) occ(123,11,11) occ(128,11,2) occ(129,11,6) occ(145,11,4) occ(161,11,16) occ(171,11,15) occ(172,11,14) occ(192,11,8) occ(15,12,12) occ(47,12,2) occ(53,12,7) occ(62,12,14) occ(69,12,5) occ(82,12,10) occ(97,12,3) occ(112,12,11) occ(121,12,13) occ(126,12,4) occ(127,12,8) occ(143,12,6) occ(153,12,9) occ(165,12,15) occ(174,12,16) occ(49,13,4) occ(52,13,6) occ(60,13,12) occ(64,13,16) occ(71,13,3) occ(72,13,10) occ(80,13,8) occ(94,13,9) occ(110,13,13) occ(124,13,2) occ(131,13,5) occ(155,13,11) occ(159,13,15) occ(169,13,14) occ(190,13,7) occ(51,14,6) occ(70,14,12) occ(73,14,1) occ(78,14,10) occ(79,14,2) occ(87,14,8) occ(95,14,4) occ(100,14,11) occ(106,14,14) occ(133,14,3) occ(141,14,7) occ(157,14,13) occ(167,14,16) occ(176,14,15) occ(188,14,9) occ(54,15,7) occ(58,15,11) occ(66,15,15) occ(74,15,9) occ(75,15,3) occ(83,15,5) occ(89,15,6) occ(93,15,2) occ(96,15,8) occ(102,15,13) occ(108,15,12) occ(137,15,4) occ(180,15,14) occ(184,15,10) occ(56,16,9) occ(68,16,13) occ(76,16,11) occ(77,16,1) occ(81,16,3) occ(85,16,7) occ(91,16,4) occ(98,16,10) occ(104,16,15) occ(135,16,2) occ(139,16,6) occ(178,16,16) occ(182,16,12) occ(186,16,8)
Optimization: -229
Answer: 8
occ(1,3,12) occ(1,10,15) occ(1,1,10) occ(1,6,1) occ(1,3,1) occ(1,9,13) occ(1,5,16) occ(1,14,5) occ(1,4,5) occ(1,1,13) occ(2,7,5) occ(3,8,6) coverage(230) occ(10,1,1) occ(14,1,3) occ(18,1,7) occ(22,1,11) occ(84,1,14) occ(88,1,16) occ(94,1,15) occ(112,1,8) occ(116,1,6) occ(120,1,2) occ(128,1,4) occ(176,1,12) occ(186,1,9) occ(190,1,5) occ(8,2,3) occ(16,2,5) occ(20,2,9) occ(24,2,13) occ(82,2,16) occ(90,2,14) occ(98,2,12) occ(102,2,8) occ(118,2,4) occ(126,2,2) occ(130,2,6) occ(172,2,15) occ(178,2,10) occ(188,2,7) occ(228,2,11) occ(12,3,2) occ(38,3,11) occ(86,3,15) occ(92,3,16) occ(96,3,14) occ(100,3,10) occ(104,3,6) occ(110,3,9) occ(114,3,7) occ(122,3,3) occ(174,3,13) occ(184,3,8) occ(192,3,4) occ(6,4,2) occ(19,4,16) occ(26,4,12) occ(36,4,13) occ(40,4,9) occ(75,4,4) occ(80,4,15) occ(106,4,8) occ(124,4,1) occ(132,4,7) occ(170,4,14) occ(175,4,6) occ(180,4,11) occ(181,4,3) occ(226,4,10) occ(4,5,4) occ(21,5,14) occ(34,5,15) occ(77,5,6) occ(78,5,13) occ(108,5,10) occ(111,5,7) occ(162,5,11) occ(168,5,12) occ(173,5,8) occ(179,5,5) occ(182,5,9) occ(194,5,3) occ(17,6,15) occ(28,6,13) occ(42,6,10) occ(73,6,3) occ(74,6,16) occ(79,6,4) occ(109,6,5) occ(134,6,6) occ(154,6,8) occ(160,6,9) occ(166,6,14) occ(177,6,7) occ(183,6,2) occ(224,6,11) occ(7,7,9) occ(23,7,15) occ(32,7,16) occ(76,7,14) occ(81,7,2) occ(113,7,8) occ(152,7,6) occ(156,7,10) occ(164,7,12) occ(171,7,7) occ(187,7,1) occ(196,7,4) occ(11,8,12) occ(15,8,16) occ(30,8,14) occ(44,8,11) occ(71,8,2) occ(72,8,15) occ(107,8,4) occ(136,8,5) occ(140,8,1) occ(158,8,8) occ(169,8,9) occ(185,8,3) occ(216,8,13) occ(222,8,10) occ(229,8,7) occ(5,9,8) occ(9,9,10) occ(13,9,14) occ(25,9,16) occ(83,9,1) occ(115,9,9) occ(135,9,15) occ(138,9,3) occ(144,9,4) occ(150,9,7) occ(189,9,2) occ(198,9,5) occ(214,9,11) occ(220,9,12) occ(225,9,6) occ(46,10,12) occ(69,10,1) occ(70,10,16) occ(105,10,3) occ(133,10,13) occ(142,10,2) occ(146,10,6) occ(161,10,11) occ(167,10,10) occ(197,10,5) occ(200,10,7) occ(208,10,9) occ(218,10,14) occ(223,10,4) occ(227,10,8) occ(27,11,15) occ(48,11,14) occ(65,11,4) occ(85,11,2) occ(103,11,5) occ(117,11,10) occ(131,11,11) occ(137,11,16) occ(148,11,8) occ(163,11,13) occ(191,11,1) occ(199,11,3) occ(202,11,9) occ(212,11,12) occ(221,11,6) occ(39,12,6) occ(50,12,16) occ(67,12,2) occ(68,12,15) occ(101,12,3) occ(129,12,13) occ(147,12,14) occ(159,12,12) occ(165,12,11) occ(195,12,4) occ(205,12,7) occ(206,12,8) occ(210,12,10) occ(217,12,9) occ(29,13,14) occ(37,13,8) occ(57,13,6) occ(63,13,5) occ(87,13,3) occ(91,13,1) occ(119,13,11) occ(139,13,15) occ(145,13,16) occ(149,13,12) occ(193,13,2) occ(201,13,4) occ(204,13,10) occ(207,13,9) occ(219,13,7) occ(41,14,7) occ(49,14,1) occ(52,14,15) occ(59,14,4) occ(60,14,11) occ(66,14,16) occ(93,14,3) occ(99,14,2) occ(121,14,9) occ(127,14,12) occ(143,14,14) occ(157,14,13) occ(203,14,6) occ(211,14,10) occ(215,14,8) occ(31,15,13) occ(35,15,9) occ(45,15,4) occ(51,15,3) occ(55,15,7) occ(56,15,12) occ(61,15,6) occ(64,15,14) occ(89,15,2) occ(95,15,5) occ(125,15,10) occ(141,15,16) occ(151,15,11) occ(155,15,15) occ(209,15,8) occ(33,16,11) occ(43,16,6) occ(47,16,2) occ(53,16,5) occ(54,16,14) occ(58,16,10) occ(62,16,12) occ(97,16,3) occ(123,16,8) occ(153,16,13) occ(213,16,9)
Optimization: -230
Answer: 9
occ(1,3,12) occ(1,10,15) occ(1,1,10) occ(1,6,1) occ(1,3,1) occ(1,9,13) occ(1,5,16) occ(1,14,5) occ(1,4,5) occ(1,1,13) occ(2,7,5) occ(3,8,6) coverage(232) occ(10,1,1) occ(14,1,3) occ(18,1,7) occ(22,1,11) occ(84,1,14) occ(88,1,16) occ(94,1,15) occ(108,1,6) occ(116,1,8) occ(124,1,4) occ(176,1,12) occ(186,1,9) occ(190,1,5) occ(8,2,3) occ(16,2,5) occ(20,2,9) occ(24,2,13) occ(82,2,16) occ(90,2,14) occ(98,2,12) occ(106,2,4) occ(110,2,8) occ(118,2,6) occ(126,2,2) occ(172,2,15) occ(178,2,10) occ(188,2,7) occ(228,2,11) occ(12,3,2) occ(38,3,11) occ(86,3,15) occ(92,3,16) occ(96,3,14) occ(100,3,10) occ(104,3,6) occ(114,3,7) occ(122,3,5) occ(130,3,3) occ(174,3,13) occ(184,3,8) occ(192,3,4) occ(230,3,9) occ(6,4,2) occ(19,4,16) occ(26,4,12) occ(36,4,13) occ(75,4,4) occ(80,4,15) occ(102,4,8) occ(112,4,9) occ(120,4,7) occ(128,4,1) occ(170,4,14) occ(175,4,6) occ(180,4,11) occ(181,4,3) occ(226,4,10) occ(4,5,4) occ(21,5,14) occ(34,5,15) occ(40,5,10) occ(77,5,6) occ(78,5,13) occ(111,5,7) occ(132,5,2) occ(162,5,11) occ(168,5,12) occ(173,5,8) occ(179,5,5) occ(182,5,9) occ(194,5,3) occ(17,6,15) occ(28,6,13) occ(42,6,12) occ(73,6,3) occ(74,6,16) occ(79,6,4) occ(109,6,5) occ(154,6,8) occ(160,6,9) occ(166,6,14) occ(177,6,7) occ(183,6,2) occ(224,6,11) occ(231,6,6) occ(7,7,9) occ(23,7,15) occ(32,7,16) occ(76,7,14) occ(81,7,2) occ(113,7,8) occ(134,7,3) occ(152,7,6) occ(156,7,10) occ(164,7,12) occ(171,7,7) occ(187,7,1) occ(196,7,4) occ(11,8,12) occ(15,8,16) occ(30,8,14) occ(44,8,11) occ(71,8,2) occ(72,8,15) occ(107,8,4) occ(136,8,5) occ(140,8,1) occ(158,8,8) occ(169,8,9) occ(185,8,3) occ(216,8,13) occ(222,8,10) occ(229,8,7) occ(5,9,8) occ(9,9,10) occ(13,9,14) occ(25,9,16) occ(83,9,1) occ(115,9,9) occ(135,9,15) occ(138,9,3) occ(144,9,4) occ(150,9,7) occ(189,9,2) occ(198,9,5) occ(214,9,11) occ(220,9,12) occ(225,9,6) occ(46,10,12) occ(69,10,1) occ(70,10,16) occ(105,10,3) occ(133,10,13) occ(142,10,2) occ(146,10,6) occ(161,10,11) occ(167,10,10) occ(197,10,5) occ(200,10,7) occ(208,10,9) occ(218,10,14) occ(223,10,4) occ(227,10,8) occ(27,11,15) occ(48,11,14) occ(65,11,4) occ(85,11,2) occ(103,11,5) occ(117,11,10) occ(131,11,11) occ(137,11,16) occ(148,11,8) occ(163,11,13) occ(191,11,1) occ(199,11,3) occ(202,11,9) occ(212,11,12) occ(221,11,6) occ(39,12,6) occ(50,12,16) occ(67,12,2) occ(68,12,15) occ(101,12,3) occ(129,12,13) occ(147,12,14) occ(159,12,12) occ(165,12,11) occ(195,12,4) occ(205,12,7) occ(206,12,8) occ(210,12,10) occ(217,12,9) occ(29,13,14) occ(37,13,8) occ(57,13,6) occ(63,13,5) occ(87,13,3) occ(91,13,1) occ(119,13,11) occ(139,13,15) occ(145,13,16) occ(149,13,12) occ(193,13,2) occ(201,13,4) occ(204,13,10) occ(207,13,9) occ(219,13,7) occ(41,14,7) occ(49,14,1) occ(52,14,15) occ(59,14,4) occ(60,14,11) occ(66,14,16) occ(93,14,3) occ(99,14,2) occ(121,14,9) occ(127,14,12) occ(143,14,14) occ(157,14,13) occ(203,14,6) occ(211,14,10) occ(215,14,8) occ(31,15,13) occ(35,15,9) occ(45,15,4) occ(51,15,3) occ(55,15,7) occ(56,15,12) occ(61,15,6) occ(64,15,14) occ(89,15,2) occ(95,15,5) occ(125,15,10) occ(141,15,16) occ(151,15,11) occ(155,15,15) occ(209,15,8) occ(33,16,11) occ(43,16,6) occ(47,16,2) occ(53,16,5) occ(54,16,14) occ(58,16,10) occ(62,16,12) occ(97,16,3) occ(123,16,8) occ(153,16,13) occ(213,16,9)
Optimization: -232
Answer: 10
occ(1,3,12) occ(1,10,15) occ(1,1,10) occ(1,6,1) occ(1,3,1) occ(1,9,13) occ(1,5,16) occ(1,14,5) occ(1,4,5) occ(1,1,13) occ(2,7,5) occ(3,8,6) coverage(234) occ(10,1,1) occ(14,1,3) occ(18,1,7) occ(22,1,11) occ(84,1,14) occ(88,1,16) occ(94,1,15) occ(112,1,4) occ(120,1,2) occ(124,1,6) occ(176,1,12) occ(186,1,9) occ(190,1,5) occ(232,1,8) occ(8,2,3) occ(16,2,5) occ(20,2,9) occ(24,2,13) occ(82,2,16) occ(90,2,14) occ(98,2,12) occ(106,2,8) occ(114,2,2) occ(122,2,4) occ(172,2,15) occ(178,2,10) occ(188,2,7) occ(228,2,11) occ(12,3,2) occ(38,3,11) occ(86,3,15) occ(92,3,16) occ(96,3,14) occ(100,3,10) occ(104,3,6) occ(110,3,5) occ(118,3,3) occ(126,3,7) occ(174,3,13) occ(184,3,8) occ(192,3,4) occ(230,3,9) occ(6,4,2) occ(19,4,16) occ(26,4,12) occ(36,4,13) occ(75,4,4) occ(80,4,15) occ(102,4,8) occ(108,4,7) occ(116,4,1) occ(128,4,9) occ(170,4,14) occ(175,4,6) occ(180,4,11) occ(181,4,3) occ(226,4,10) occ(4,5,4) occ(21,5,14) occ(34,5,15) occ(40,5,10) occ(77,5,6) occ(78,5,13) occ(130,5,7) occ(162,5,11) occ(168,5,12) occ(173,5,8) occ(179,5,5) occ(182,5,9) occ(194,5,3) occ(17,6,15) occ(28,6,13) occ(42,6,12) occ(73,6,3) occ(74,6,16) occ(79,6,4) occ(111,6,8) occ(132,6,5) occ(160,6,9) occ(166,6,14) occ(171,6,10) occ(177,6,7) occ(183,6,2) occ(224,6,11) occ(7,7,9) occ(23,7,15) occ(32,7,16) occ(76,7,14) occ(81,7,2) occ(109,7,6) occ(134,7,7) occ(152,7,8) occ(156,7,10) occ(164,7,12) occ(187,7,1) occ(196,7,4) occ(11,8,12) occ(15,8,16) occ(30,8,14) occ(44,8,11) occ(71,8,2) occ(72,8,15) occ(107,8,4) occ(113,8,7) occ(136,8,5) occ(140,8,1) occ(158,8,8) occ(169,8,9) occ(185,8,3) occ(216,8,13) occ(222,8,10) occ(5,9,8) occ(9,9,10) occ(13,9,14) occ(25,9,16) occ(83,9,1) occ(135,9,15) occ(138,9,3) occ(144,9,4) occ(150,9,7) occ(154,9,9) occ(189,9,2) occ(198,9,5) occ(214,9,11) occ(220,9,12) occ(225,9,6) occ(46,10,12) occ(69,10,1) occ(70,10,16) occ(105,10,3) occ(115,10,8) occ(133,10,13) occ(142,10,2) occ(146,10,6) occ(161,10,11) occ(167,10,10) occ(197,10,5) occ(200,10,7) occ(208,10,9) occ(218,10,14) occ(223,10,4) occ(27,11,15) occ(48,11,14) occ(65,11,4) occ(85,11,2) occ(103,11,5) occ(117,11,10) occ(131,11,11) occ(137,11,16) occ(148,11,8) occ(163,11,13) occ(191,11,1) occ(199,11,3) occ(202,11,9) occ(212,11,12) occ(221,11,6) occ(227,11,7) occ(39,12,6) occ(50,12,16) occ(67,12,2) occ(68,12,15) occ(101,12,3) occ(129,12,13) occ(147,12,14) occ(159,12,12) occ(165,12,11) occ(195,12,4) occ(205,12,7) occ(206,12,8) occ(210,12,10) occ(217,12,9) occ(229,12,5) occ(233,12,1) occ(29,13,14) occ(37,13,8) occ(57,13,6) occ(63,13,5) occ(87,13,1) occ(119,13,11) occ(139,13,15) occ(145,13,16) occ(149,13,12) occ(193,13,2) occ(201,13,4) occ(204,13,10) occ(207,13,9) occ(219,13,7) occ(231,13,3) occ(41,14,7) occ(49,14,1) occ(52,14,15) occ(59,14,4) occ(60,14,11) occ(66,14,16) occ(93,14,3) occ(99,14,2) occ(121,14,9) occ(127,14,12) occ(143,14,14) occ(157,14,13) occ(203,14,6) occ(211,14,10) occ(215,14,8) occ(31,15,13) occ(35,15,9) occ(45,15,4) occ(51,15,3) occ(55,15,7) occ(56,15,12) occ(61,15,6) occ(64,15,14) occ(89,15,2) occ(95,15,5) occ(125,15,10) occ(141,15,16) occ(151,15,11) occ(155,15,15) occ(209,15,8) occ(33,16,11) occ(43,16,6) occ(47,16,2) occ(53,16,5) occ(54,16,14) occ(58,16,10) occ(62,16,12) occ(91,16,4) occ(97,16,3) occ(123,16,8) occ(153,16,13) occ(213,16,9)
Optimization: -234
Answer: 11
occ(1,3,12) occ(1,10,15) occ(1,1,10) occ(1,6,1) occ(1,3,1) occ(1,9,13) occ(1,5,16) occ(1,14,5) occ(1,4,5) occ(1,1,13) occ(2,7,5) occ(3,8,6) coverage(235) occ(10,1,1) occ(14,1,3) occ(18,1,7) occ(22,1,11) occ(84,1,14) occ(88,1,16) occ(94,1,15) occ(112,1,4) occ(120,1,2) occ(124,1,6) occ(176,1,12) occ(186,1,9) occ(190,1,5) occ(232,1,8) occ(8,2,3) occ(16,2,5) occ(20,2,9) occ(24,2,13) occ(82,2,16) occ(90,2,14) occ(98,2,12) occ(106,2,8) occ(114,2,2) occ(122,2,4) occ(172,2,15) occ(178,2,10) occ(188,2,7) occ(228,2,11) occ(234,2,6) occ(12,3,2) occ(38,3,11) occ(86,3,15) occ(92,3,16) occ(96,3,14) occ(100,3,10) occ(104,3,6) occ(110,3,5) occ(118,3,3) occ(126,3,7) occ(174,3,13) occ(184,3,8) occ(192,3,4) occ(230,3,9) occ(6,4,2) occ(19,4,16) occ(26,4,12) occ(36,4,13) occ(75,4,4) occ(80,4,15) occ(102,4,8) occ(108,4,7) occ(116,4,1) occ(128,4,9) occ(170,4,14) occ(175,4,6) occ(180,4,11) occ(181,4,3) occ(226,4,10) occ(4,5,4) occ(21,5,14) occ(34,5,15) occ(40,5,10) occ(77,5,6) occ(78,5,13) occ(130,5,7) occ(162,5,11) occ(168,5,12) occ(173,5,8) occ(179,5,5) occ(182,5,9) occ(194,5,3) occ(17,6,15) occ(28,6,13) occ(42,6,12) occ(73,6,3) occ(74,6,16) occ(79,6,4) occ(111,6,8) occ(132,6,5) occ(160,6,9) occ(166,6,14) occ(171,6,10) occ(177,6,7) occ(183,6,2) occ(224,6,11) occ(7,7,9) occ(23,7,15) occ(32,7,16) occ(76,7,14) occ(81,7,2) occ(109,7,6) occ(134,7,7) occ(152,7,8) occ(156,7,10) occ(164,7,12) occ(187,7,1) occ(196,7,4) occ(11,8,12) occ(15,8,16) occ(30,8,14) occ(44,8,11) occ(71,8,2) occ(72,8,15) occ(107,8,4) occ(113,8,7) occ(136,8,5) occ(140,8,1) occ(158,8,8) occ(169,8,9) occ(185,8,3) occ(216,8,13) occ(222,8,10) occ(5,9,8) occ(9,9,10) occ(13,9,14) occ(25,9,16) occ(83,9,1) occ(135,9,15) occ(138,9,3) occ(144,9,4) occ(150,9,7) occ(154,9,9) occ(189,9,2) occ(198,9,5) occ(214,9,11) occ(220,9,12) occ(225,9,6) occ(46,10,12) occ(69,10,1) occ(70,10,16) occ(105,10,3) occ(115,10,8) occ(133,10,13) occ(142,10,2) occ(146,10,6) occ(161,10,11) occ(167,10,10) occ(197,10,5) occ(200,10,7) occ(208,10,9) occ(218,10,14) occ(223,10,4) occ(27,11,15) occ(48,11,14) occ(65,11,4) occ(85,11,2) occ(103,11,5) occ(117,11,10) occ(131,11,11) occ(137,11,16) occ(148,11,8) occ(163,11,13) occ(191,11,1) occ(199,11,3) occ(202,11,9) occ(212,11,12) occ(221,11,6) occ(227,11,7) occ(39,12,6) occ(50,12,16) occ(67,12,2) occ(68,12,15) occ(101,12,3) occ(129,12,13) occ(147,12,14) occ(159,12,12) occ(165,12,11) occ(195,12,4) occ(205,12,7) occ(206,12,8) occ(210,12,10) occ(217,12,9) occ(229,12,5) occ(233,12,1) occ(29,13,14) occ(37,13,8) occ(57,13,6) occ(63,13,5) occ(87,13,1) occ(119,13,11) occ(139,13,15) occ(145,13,16) occ(149,13,12) occ(193,13,2) occ(201,13,4) occ(204,13,10) occ(207,13,9) occ(219,13,7) occ(231,13,3) occ(41,14,7) occ(49,14,1) occ(52,14,15) occ(59,14,4) occ(60,14,11) occ(66,14,16) occ(93,14,3) occ(99,14,2) occ(121,14,9) occ(127,14,12) occ(143,14,14) occ(157,14,13) occ(203,14,6) occ(211,14,10) occ(215,14,8) occ(31,15,13) occ(35,15,9) occ(45,15,4) occ(51,15,3) occ(55,15,7) occ(56,15,12) occ(61,15,6) occ(64,15,14) occ(89,15,2) occ(95,15,5) occ(125,15,10) occ(141,15,16) occ(151,15,11) occ(155,15,15) occ(209,15,8) occ(33,16,11) occ(43,16,6) occ(47,16,2) occ(53,16,5) occ(54,16,14) occ(58,16,10) occ(62,16,12) occ(91,16,4) occ(97,16,3) occ(123,16,8) occ(153,16,13) occ(213,16,9)
Optimization: -235
Answer: 12
occ(1,3,12) occ(1,10,15) occ(1,1,10) occ(1,6,1) occ(1,3,1) occ(1,9,13) occ(1,5,16) occ(1,14,5) occ(1,4,5) occ(1,1,13) occ(2,7,5) occ(3,8,6) coverage(236) occ(10,1,1) occ(14,1,3) occ(18,1,7) occ(22,1,11) occ(84,1,14) occ(88,1,16) occ(94,1,15) occ(116,1,6) occ(120,1,2) occ(128,1,4) occ(176,1,12) occ(186,1,9) occ(190,1,5) occ(232,1,8) occ(8,2,3) occ(16,2,5) occ(20,2,9) occ(24,2,13) occ(82,2,16) occ(90,2,14) occ(98,2,12) occ(102,2,8) occ(118,2,4) occ(126,2,2) occ(172,2,15) occ(178,2,10) occ(188,2,7) occ(228,2,11) occ(234,2,6) occ(12,3,2) occ(38,3,11) occ(86,3,15) occ(92,3,16) occ(96,3,14) occ(100,3,10) occ(104,3,6) occ(114,3,7) occ(122,3,3) occ(130,3,5) occ(174,3,13) occ(184,3,8) occ(192,3,4) occ(230,3,9) occ(6,4,2) occ(19,4,16) occ(26,4,12) occ(36,4,13) occ(40,4,9) occ(75,4,4) occ(80,4,15) occ(124,4,1) occ(132,4,3) occ(170,4,14) occ(175,4,8) occ(180,4,11) occ(181,4,7) occ(226,4,10) occ(4,5,4) occ(21,5,14) occ(34,5,15) occ(77,5,6) occ(78,5,13) occ(81,5,2) occ(106,5,7) occ(112,5,8) occ(134,5,1) occ(162,5,11) occ(168,5,12) occ(173,5,10) occ(179,5,5) occ(182,5,9) occ(194,5,3) occ(17,6,15) occ(28,6,13) occ(42,6,10) occ(73,6,3) occ(74,6,16) occ(79,6,4) occ(108,6,5) occ(111,6,8) occ(160,6,9) occ(166,6,14) occ(177,6,7) occ(183,6,6) occ(224,6,11) occ(7,7,9) occ(23,7,15) occ(32,7,16) occ(76,7,14) occ(83,7,1) occ(109,7,6) occ(110,7,7) occ(136,7,2) occ(152,7,8) occ(156,7,10) occ(164,7,12) occ(171,7,11) occ(187,7,3) occ(196,7,4) occ(11,8,12) occ(15,8,16) occ(30,8,14) occ(44,8,11) occ(71,8,2) occ(72,8,15) occ(85,8,3) occ(107,8,4) occ(113,8,7) occ(140,8,1) occ(158,8,8) occ(169,8,9) occ(185,8,5) occ(216,8,13) occ(222,8,10) occ(5,9,8) occ(9,9,10) occ(13,9,14) occ(25,9,16) occ(87,9,1) occ(135,9,15) occ(138,9,3) occ(144,9,4) occ(150,9,7) occ(154,9,9) occ(189,9,2) occ(198,9,5) occ(214,9,11) occ(220,9,12) occ(225,9,6) occ(46,10,12) occ(69,10,1) occ(70,10,16) occ(105,10,3) occ(115,10,8) occ(133,10,13) occ(142,10,2) occ(146,10,6) occ(161,10,11) occ(167,10,10) occ(197,10,5) occ(200,10,7) occ(208,10,9) occ(218,10,14) occ(223,10,4) occ(27,11,15) occ(48,11,14) occ(65,11,4) occ(89,11,2) occ(103,11,5) occ(117,11,10) occ(131,11,11) occ(137,11,16) occ(148,11,8) occ(163,11,13) occ(191,11,1) occ(199,11,3) occ(202,11,9) occ(212,11,12) occ(221,11,6) occ(227,11,7) occ(39,12,6) occ(50,12,16) occ(67,12,2) occ(68,12,15) occ(101,12,3) occ(129,12,13) occ(147,12,14) occ(159,12,12) occ(165,12,11) occ(195,12,4) occ(205,12,7) occ(206,12,8) occ(210,12,10) occ(217,12,9) occ(229,12,5) occ(29,13,14) occ(37,13,8) occ(57,13,6) occ(63,13,5) occ(91,13,1) occ(119,13,11) occ(139,13,15) occ(145,13,16) occ(149,13,12) occ(193,13,2) occ(201,13,4) occ(204,13,10) occ(207,13,9) occ(219,13,7) occ(231,13,3) occ(41,14,7) occ(49,14,1) occ(52,14,15) occ(59,14,4) occ(60,14,11) occ(66,14,16) occ(93,14,3) occ(99,14,2) occ(121,14,9) occ(127,14,12) occ(143,14,14) occ(157,14,13) occ(203,14,6) occ(211,14,10) occ(215,14,8) occ(31,15,13) occ(35,15,9) occ(45,15,4) occ(51,15,3) occ(55,15,7) occ(56,15,12) occ(61,15,6) occ(64,15,14) occ(95,15,5) occ(125,15,10) occ(141,15,16) occ(151,15,11) occ(155,15,15) occ(209,15,8) occ(233,15,2) occ(33,16,11) occ(43,16,6) occ(47,16,2) occ(53,16,5) occ(54,16,14) occ(58,16,10) occ(62,16,12) occ(97,16,3) occ(123,16,8) occ(153,16,13) occ(213,16,9) occ(235,16,4)
Optimization: -236
*** Info : (clingo): INTERRUPTED by signal!
SATISFIABLE

TIME LIMIT   : 1
Models       : 12+
  Optimum    : unknown
Optimization : -236
Calls        : 1
Time         : 300.000s (Solving: 264.35s 1st Model: 0.01s Unsat: 0.00s)
CPU Time     : 299.999s
